(set-logic QF_S)
(declare-fun I () String)
(declare-fun H () String)
(declare-fun G () String)
(declare-fun F () String)
(declare-fun J () String)
(assert (= (str.++  F F G "a" F F G "b" G "aba" I "b" I)  (str.++  "a" G "aaaa" H "aa" H "aab" I I I I "b" J J "baa") ))
(check-sat)
(get-model)
